#! RHF-CCSD 6-31G** all-electron optimization of the H2O molecule

memory 250 mb

molecule h2o {
    O
    H 1 0.97
    H 1 0.97 2 103.0
}

set {
    basis sto-3g
    PRINT_TEI = True
    PRINT_OE_INTEGRALS = True
    PRINT_MOS = True
}

optimize('ccsd')
energy('scf')
