
# PYTHONPATH must include directory above plugin directory.
#     Define either externally or here, then import plugin.
sys.path.insert(0, './..')
import sointegrals

molecule {
O
H 1 R
H 1 R 2 A

R = .9
A = 104.5
}

set {
  basis 6-31G*
}

set sointegrals {
  print 1
  do_tei True
}

energy('sointegrals')

sointegrals.exampleFN()

